benchmarks_CP/INST_49x49/50/inst49x49_50_79.dzn
S=7;
start=[|
30,	-1,	42,	37,	-1,	17,	-1,	-1,	11,	-1,	2,	16,	43,	-1,	1,	45,	15,	-1,	-1,	33,	-1,	-1,	-1,	-1,	48,	-1,	19,	27,	36,	-1,	6,	31,	40,	-1,	-1,	-1,	-1,	9,	4,	21,	23,	24,	49,	-1,	-1,	-1,	12,	-1,	32|
-1,	8,	1,	-1,	-1,	25,	23,	-1,	-1,	3,	47,	-1,	-1,	49,	6,	43,	-1,	-1,	-1,	24,	-1,	-1,	37,	-1,	11,	-1,	40,	-1,	-1,	26,	22,	7,	14,	5,	16,	10,	-1,	28,	-1,	38,	-1,	35,	-1,	-1,	-1,	-1,	-1,	-1,	4|
-1,	-1,	34,	47,	40,	19,	-1,	-1,	-1,	-1,	-1,	-1,	23,	-1,	-1,	38,	-1,	14,	-1,	13,	37,	24,	45,	5,	-1,	-1,	41,	42,	2,	25,	-1,	11,	43,	1,	4,	-1,	3,	-1,	-1,	-1,	12,	-1,	31,	17,	-1,	35,	-1,	15,	-1|
-1,	-1,	-1,	7,	-1,	-1,	-1,	-1,	44,	-1,	36,	-1,	-1,	-1,	-1,	-1,	-1,	47,	-1,	-1,	11,	38,	-1,	-1,	4,	-1,	-1,	14,	27,	-1,	18,	-1,	21,	32,	-1,	-1,	-1,	-1,	16,	45,	-1,	19,	-1,	-1,	-1,	24,	-1,	39,	-1|
16,	13,	-1,	5,	20,	10,	-1,	40,	46,	-1,	25,	-1,	4,	21,	-1,	48,	3,	7,	-1,	-1,	-1,	-1,	35,	30,	26,	43,	-1,	-1,	9,	-1,	-1,	12,	19,	-1,	42,	39,	-1,	-1,	15,	-1,	-1,	11,	-1,	-1,	-1,	-1,	29,	-1,	-1|
31,	-1,	-1,	11,	29,	-1,	-1,	-1,	28,	-1,	7,	48,	19,	-1,	42,	-1,	40,	-1,	-1,	-1,	5,	16,	34,	-1,	9,	-1,	-1,	23,	35,	37,	17,	20,	3,	-1,	-1,	-1,	-1,	14,	-1,	-1,	-1,	1,	-1,	-1,	-1,	-1,	-1,	44,	10|
45,	21,	39,	24,	-1,	-1,	-1,	33,	27,	-1,	37,	-1,	41,	-1,	-1,	29,	18,	-1,	-1,	-1,	-1,	-1,	-1,	6,	-1,	-1,	36,	-1,	38,	-1,	-1,	-1,	30,	23,	-1,	43,	-1,	32,	-1,	-1,	-1,	-1,	28,	-1,	19,	16,	-1,	-1,	-1|
-1,	48,	-1,	-1,	49,	44,	10,	26,	14,	12,	24,	-1,	-1,	3,	-1,	-1,	-1,	-1,	6,	35,	-1,	-1,	-1,	9,	-1,	-1,	42,	22,	19,	-1,	16,	47,	-1,	-1,	-1,	38,	-1,	-1,	20,	36,	46,	-1,	-1,	32,	-1,	-1,	-1,	29,	-1|
-1,	-1,	-1,	-1,	2,	1,	42,	-1,	-1,	-1,	21,	41,	16,	25,	7,	-1,	24,	-1,	-1,	49,	-1,	-1,	31,	32,	-1,	47,	-1,	36,	23,	9,	-1,	-1,	44,	37,	-1,	22,	10,	-1,	-1,	-1,	3,	27,	15,	-1,	-1,	-1,	19,	-1,	38|
-1,	-1,	-1,	-1,	39,	-1,	33,	-1,	6,	36,	40,	-1,	48,	-1,	-1,	-1,	32,	31,	5,	38,	23,	-1,	-1,	-1,	-1,	-1,	-1,	-1,	22,	20,	21,	14,	-1,	7,	-1,	-1,	25,	34,	17,	-1,	-1,	-1,	37,	41,	-1,	47,	4,	35,	43|
-1,	38,	17,	41,	31,	5,	18,	8,	-1,	11,	-1,	7,	-1,	46,	-1,	25,	47,	42,	27,	9,	1,	-1,	-1,	39,	-1,	-1,	34,	35,	32,	-1,	-1,	29,	-1,	40,	-1,	-1,	49,	45,	-1,	-1,	24,	12,	-1,	-1,	16,	-1,	3,	36,	-1|
40,	-1,	32,	45,	37,	-1,	29,	34,	-1,	-1,	38,	-1,	-1,	-1,	14,	17,	33,	-1,	3,	-1,	22,	19,	-1,	2,	25,	41,	1,	48,	49,	5,	-1,	-1,	-1,	6,	24,	13,	-1,	30,	-1,	7,	-1,	16,	-1,	-1,	-1,	-1,	-1,	27,	-1|
-1,	34,	-1,	-1,	22,	30,	-1,	4,	-1,	35,	45,	-1,	-1,	32,	-1,	46,	-1,	-1,	48,	-1,	21,	-1,	-1,	11,	-1,	38,	-1,	-1,	-1,	-1,	-1,	26,	42,	27,	-1,	18,	-1,	-1,	-1,	-1,	19,	2,	-1,	25,	-1,	49,	10,	6,	-1|
3,	-1,	20,	-1,	-1,	16,	-1,	-1,	29,	39,	9,	-1,	22,	28,	19,	-1,	-1,	10,	-1,	-1,	36,	43,	27,	-1,	15,	14,	-1,	18,	-1,	35,	8,	38,	25,	-1,	30,	32,	-1,	6,	-1,	-1,	41,	33,	-1,	48,	44,	1,	46,	45,	-1|
14,	-1,	-1,	15,	42,	-1,	-1,	46,	-1,	44,	-1,	-1,	-1,	-1,	37,	39,	-1,	38,	-1,	36,	-1,	-1,	47,	12,	-1,	-1,	-1,	-1,	-1,	-1,	-1,	13,	6,	31,	-1,	23,	1,	4,	45,	9,	-1,	10,	-1,	-1,	27,	-1,	-1,	49,	28|
-1,	-1,	-1,	-1,	-1,	23,	-1,	25,	12,	-1,	-1,	-1,	-1,	-1,	-1,	21,	34,	33,	43,	2,	-1,	-1,	14,	-1,	46,	-1,	-1,	13,	29,	-1,	-1,	40,	-1,	35,	-1,	-1,	-1,	27,	31,	-1,	-1,	20,	-1,	47,	-1,	-1,	-1,	-1,	41|
43,	-1,	9,	34,	-1,	13,	3,	15,	35,	-1,	-1,	-1,	-1,	48,	-1,	-1,	-1,	24,	14,	-1,	31,	-1,	-1,	29,	41,	39,	-1,	-1,	47,	49,	42,	22,	-1,	44,	12,	28,	16,	11,	-1,	46,	-1,	40,	-1,	-1,	-1,	30,	45,	-1,	-1|
-1,	29,	33,	-1,	6,	-1,	40,	-1,	17,	-1,	-1,	-1,	36,	-1,	48,	-1,	16,	-1,	23,	47,	9,	8,	-1,	-1,	-1,	-1,	49,	37,	-1,	-1,	-1,	2,	-1,	-1,	15,	-1,	-1,	35,	-1,	-1,	30,	-1,	34,	-1,	3,	20,	22,	25,	-1|
-1,	-1,	-1,	46,	10,	47,	-1,	14,	-1,	37,	28,	-1,	-1,	-1,	35,	15,	-1,	4,	-1,	-1,	-1,	40,	-1,	43,	-1,	-1,	32,	-1,	-1,	34,	-1,	27,	-1,	24,	9,	-1,	33,	-1,	29,	-1,	-1,	3,	23,	6,	17,	-1,	8,	12,	-1|
49,	20,	27,	-1,	-1,	-1,	-1,	-1,	41,	30,	-1,	-1,	45,	-1,	29,	-1,	28,	40,	25,	19,	-1,	-1,	42,	16,	34,	35,	-1,	-1,	1,	-1,	23,	-1,	36,	8,	-1,	-1,	-1,	-1,	-1,	-1,	-1,	-1,	46,	14,	-1,	2,	-1,	9,	31|
36,	-1,	4,	-1,	45,	31,	17,	-1,	26,	18,	-1,	40,	34,	-1,	-1,	-1,	-1,	46,	-1,	27,	30,	23,	25,	-1,	-1,	3,	5,	-1,	-1,	7,	41,	-1,	-1,	43,	14,	-1,	47,	2,	39,	-1,	-1,	-1,	16,	38,	-1,	-1,	33,	-1,	-1|
1,	15,	46,	-1,	13,	-1,	8,	27,	-1,	2,	-1,	-1,	-1,	17,	-1,	-1,	44,	-1,	37,	-1,	39,	34,	-1,	-1,	21,	9,	12,	4,	-1,	31,	49,	33,	-1,	-1,	-1,	25,	14,	-1,	-1,	23,	-1,	-1,	-1,	-1,	-1,	38,	-1,	-1,	-1|
-1,	17,	-1,	-1,	12,	-1,	44,	-1,	8,	-1,	1,	14,	-1,	10,	-1,	33,	-1,	-1,	-1,	-1,	49,	20,	26,	-1,	32,	25,	30,	16,	-1,	22,	11,	-1,	-1,	19,	-1,	-1,	-1,	21,	28,	-1,	35,	29,	43,	46,	-1,	-1,	40,	-1,	-1|
48,	41,	-1,	16,	18,	35,	5,	7,	3,	-1,	44,	32,	21,	13,	-1,	-1,	-1,	-1,	-1,	-1,	6,	-1,	36,	31,	40,	-1,	27,	-1,	-1,	-1,	1,	37,	-1,	2,	8,	-1,	-1,	12,	47,	-1,	39,	-1,	33,	-1,	-1,	-1,	34,	26,	-1|
37,	-1,	45,	-1,	30,	40,	-1,	-1,	9,	33,	-1,	-1,	-1,	-1,	-1,	10,	23,	-1,	47,	32,	-1,	-1,	-1,	-1,	35,	42,	39,	-1,	17,	-1,	24,	-1,	-1,	21,	-1,	1,	2,	-1,	19,	8,	22,	34,	6,	-1,	-1,	-1,	41,	13,	-1|
-1,	-1,	10,	-1,	27,	-1,	-1,	-1,	37,	-1,	12,	-1,	-1,	30,	11,	19,	-1,	-1,	4,	-1,	2,	-1,	3,	-1,	-1,	-1,	-1,	47,	-1,	-1,	35,	-1,	-1,	-1,	29,	24,	44,	15,	-1,	20,	-1,	42,	-1,	-1,	31,	-1,	-1,	28,	14|
-1,	-1,	25,	33,	-1,	-1,	26,	29,	22,	49,	-1,	15,	-1,	19,	-1,	34,	9,	18,	8,	16,	40,	41,	-1,	14,	38,	-1,	45,	-1,	12,	-1,	-1,	5,	-1,	47,	-1,	-1,	-1,	37,	43,	-1,	31,	46,	-1,	39,	7,	3,	-1,	1,	21|
42,	-1,	47,	21,	-1,	34,	22,	-1,	25,	28,	-1,	39,	-1,	40,	13,	27,	-1,	-1,	46,	12,	15,	29,	-1,	-1,	-1,	11,	24,	-1,	-1,	3,	-1,	32,	4,	-1,	45,	-1,	38,	-1,	-1,	-1,	10,	-1,	30,	-1,	-1,	17,	-1,	-1,	-1|
38,	-1,	-1,	25,	-1,	22,	-1,	47,	16,	4,	46,	33,	-1,	35,	-1,	28,	1,	-1,	-1,	-1,	-1,	-1,	-1,	-1,	31,	37,	14,	-1,	45,	6,	-1,	18,	49,	36,	7,	-1,	-1,	19,	-1,	10,	29,	9,	2,	12,	32,	11,	13,	-1,	-1|
-1,	19,	-1,	-1,	34,	24,	-1,	37,	-1,	-1,	30,	36,	-1,	41,	39,	-1,	42,	25,	2,	15,	-1,	35,	-1,	-1,	17,	12,	9,	-1,	-1,	-1,	10,	-1,	-1,	-1,	26,	21,	-1,	-1,	-1,	32,	-1,	-1,	-1,	8,	-1,	45,	-1,	-1,	5|
32,	-1,	48,	-1,	-1,	33,	-1,	3,	-1,	-1,	-1,	21,	39,	27,	4,	49,	-1,	-1,	-1,	-1,	-1,	42,	-1,	45,	-1,	-1,	44,	-1,	5,	-1,	-1,	-1,	-1,	20,	-1,	16,	31,	-1,	23,	-1,	1,	26,	-1,	24,	-1,	25,	30,	37,	15|
17,	-1,	-1,	-1,	41,	45,	15,	38,	5,	22,	-1,	10,	13,	-1,	-1,	-1,	-1,	6,	24,	43,	-1,	-1,	-1,	-1,	47,	16,	20,	29,	-1,	39,	14,	-1,	-1,	-1,	2,	40,	-1,	-1,	-1,	30,	-1,	44,	-1,	-1,	1,	-1,	-1,	-1,	46|
21,	-1,	6,	30,	-1,	42,	4,	2,	-1,	-1,	-1,	-1,	-1,	-1,	-1,	-1,	10,	-1,	-1,	46,	-1,	5,	33,	-1,	1,	7,	-1,	41,	-1,	-1,	13,	-1,	-1,	-1,	-1,	34,	-1,	17,	-1,	-1,	-1,	47,	-1,	40,	23,	44,	14,	38,	-1|
-1,	-1,	28,	14,	46,	27,	-1,	11,	24,	-1,	-1,	44,	-1,	45,	23,	7,	5,	-1,	-1,	37,	34,	-1,	4,	22,	-1,	-1,	-1,	40,	-1,	-1,	-1,	21,	1,	42,	-1,	-1,	20,	3,	-1,	-1,	43,	-1,	39,	49,	-1,	-1,	31,	-1,	33|
-1,	2,	11,	18,	-1,	37,	36,	19,	31,	1,	15,	-1,	12,	-1,	32,	-1,	38,	-1,	13,	-1,	47,	27,	30,	8,	39,	-1,	-1,	-1,	-1,	46,	40,	-1,	-1,	-1,	-1,	-1,	42,	-1,	-1,	28,	-1,	49,	29,	-1,	10,	26,	16,	-1,	-1|
39,	-1,	-1,	-1,	38,	-1,	46,	36,	10,	-1,	27,	-1,	-1,	-1,	24,	-1,	26,	-1,	33,	-1,	13,	47,	18,	-1,	-1,	-1,	22,	-1,	48,	-1,	-1,	1,	23,	-1,	28,	-1,	43,	5,	-1,	34,	-1,	30,	-1,	19,	12,	-1,	-1,	20,	-1|
26,	-1,	36,	-1,	-1,	-1,	-1,	21,	1,	-1,	31,	35,	-1,	16,	-1,	-1,	19,	-1,	30,	11,	-1,	-1,	-1,	41,	-1,	34,	15,	-1,	7,	2,	-1,	-1,	-1,	18,	13,	33,	45,	23,	-1,	48,	-1,	-1,	44,	43,	-1,	32,	-1,	47,	40|
19,	40,	-1,	-1,	-1,	-1,	-1,	48,	-1,	-1,	-1,	-1,	7,	26,	9,	-1,	-1,	-1,	28,	25,	-1,	36,	-1,	46,	-1,	31,	-1,	17,	-1,	14,	34,	-1,	-1,	22,	-1,	-1,	-1,	-1,	-1,	6,	21,	15,	38,	-1,	35,	29,	1,	-1,	-1|
7,	10,	5,	13,	28,	-1,	34,	-1,	45,	38,	14,	8,	-1,	-1,	17,	-1,	43,	-1,	22,	-1,	29,	-1,	-1,	-1,	16,	-1,	-1,	-1,	-1,	-1,	4,	41,	27,	3,	32,	-1,	-1,	-1,	-1,	1,	-1,	25,	36,	15,	33,	21,	37,	46,	-1|
47,	42,	-1,	-1,	-1,	29,	-1,	-1,	43,	-1,	-1,	-1,	28,	6,	34,	41,	-1,	-1,	21,	5,	-1,	37,	13,	-1,	-1,	32,	-1,	49,	20,	16,	-1,	39,	33,	26,	40,	2,	-1,	7,	-1,	-1,	-1,	36,	3,	31,	45,	-1,	23,	-1,	25|
27,	1,	43,	-1,	-1,	41,	25,	-1,	40,	19,	-1,	-1,	-1,	-1,	-1,	42,	20,	37,	-1,	-1,	16,	44,	5,	4,	-1,	-1,	3,	-1,	-1,	36,	-1,	-1,	29,	46,	-1,	-1,	13,	-1,	26,	14,	38,	22,	-1,	11,	28,	7,	-1,	24,	30|
23,	-1,	31,	-1,	-1,	-1,	32,	30,	15,	-1,	-1,	46,	3,	-1,	2,	40,	36,	-1,	-1,	-1,	48,	6,	28,	20,	27,	19,	-1,	-1,	10,	43,	12,	25,	24,	-1,	11,	-1,	-1,	-1,	35,	-1,	-1,	-1,	9,	-1,	26,	5,	17,	-1,	-1|
-1,	46,	29,	-1,	44,	-1,	-1,	-1,	34,	21,	35,	-1,	-1,	-1,	33,	-1,	-1,	45,	-1,	22,	-1,	1,	-1,	-1,	49,	-1,	-1,	-1,	-1,	-1,	43,	-1,	-1,	-1,	27,	-1,	-1,	-1,	3,	18,	25,	37,	19,	20,	-1,	23,	-1,	-1,	-1|
-1,	-1,	-1,	4,	5,	-1,	-1,	9,	32,	8,	39,	2,	26,	14,	40,	-1,	-1,	-1,	-1,	3,	27,	-1,	-1,	34,	7,	21,	29,	38,	-1,	-1,	44,	-1,	35,	-1,	17,	46,	-1,	-1,	1,	47,	-1,	-1,	-1,	28,	-1,	37,	-1,	-1,	-1|
-1,	14,	37,	-1,	15,	-1,	24,	-1,	-1,	47,	-1,	-1,	25,	33,	-1,	36,	-1,	16,	-1,	39,	-1,	-1,	-1,	10,	-1,	23,	28,	5,	41,	42,	-1,	-1,	31,	11,	22,	8,	-1,	-1,	-1,	-1,	48,	-1,	45,	35,	46,	34,	21,	-1,	27|
-1,	47,	7,	32,	23,	-1,	-1,	-1,	48,	-1,	-1,	-1,	40,	-1,	49,	-1,	-1,	-1,	-1,	-1,	-1,	-1,	41,	-1,	3,	18,	2,	-1,	-1,	4,	38,	16,	-1,	14,	19,	-1,	28,	24,	-1,	33,	-1,	21,	-1,	1,	-1,	-1,	-1,	-1,	-1|
13,	9,	40,	-1,	-1,	-1,	19,	12,	23,	27,	-1,	29,	-1,	44,	-1,	8,	37,	2,	-1,	-1,	28,	46,	11,	-1,	-1,	6,	-1,	30,	-1,	45,	-1,	15,	7,	-1,	49,	-1,	36,	41,	-1,	39,	-1,	32,	-1,	18,	-1,	-1,	-1,	-1,	48|
-1,	-1,	-1,	17,	-1,	-1,	11,	28,	-1,	7,	-1,	-1,	-1,	-1,	-1,	-1,	41,	23,	-1,	21,	-1,	-1,	-1,	-1,	42,	8,	-1,	-1,	33,	29,	-1,	-1,	2,	48,	36,	-1,	-1,	-1,	-1,	-1,	-1,	31,	32,	9,	-1,	-1,	-1,	-1,	-1|
-1,	28,	-1,	-1,	-1,	2,	-1,	22,	-1,	16,	-1,	3,	-1,	-1,	-1,	-1,	17,	34,	15,	29,	43,	33,	24,	-1,	-1,	27,	48,	-1,	-1,	-1,	37,	-1,	-1,	10,	-1,	-1,	-1,	-1,	-1,	42,	-1,	-1,	-1,	-1,	41,	-1,	-1,	7,	44|];
