sudoku-ls/benchmarks_LEQ/INST_49x49/50/inst49x49_50_79.txt
7
1
-1	44	-1	-1	3	17	-1	35	-1	34	2	-1	-1	22	-1	45	-1	-1	26	-1	-1	39	-1	-1	-1	13	-1	27	36	41	6	-1	-1	29	10	20	-1	9	-1	21	-1	-1	49	5	25	-1	-1	-1	32
18	-1	1	-1	48	-1	-1	-1	30	-1	-1	-1	15	-1	-1	43	27	-1	17	-1	-1	-1	-1	44	11	29	-1	-1	-1	26	22	-1	-1	5	16	-1	-1	-1	-1	-1	2	-1	-1	45	20	-1	36	33	4
-1	36	34	-1	40	19	-1	-1	-1	-1	8	-1	-1	-1	21	-1	22	-1	16	-1	-1	24	45	5	-1	-1	-1	-1	-1	25	33	-1	43	1	-1	-1	3	26	44	-1	-1	-1	31	-1	-1	35	7	15	-1
33	-1	-1	-1	-1	-1	-1	17	-1	-1	36	12	-1	5	41	-1	46	-1	-1	-1	-1	-1	10	3	4	20	25	-1	27	-1	18	8	-1	-1	34	31	-1	-1	16	-1	37	19	-1	42	-1	-1	26	39	13
16	-1	22	-1	-1	10	-1	-1	46	-1	25	18	4	21	-1	48	-1	7	-1	44	32	2	-1	-1	-1	-1	31	-1	-1	24	45	12	-1	49	42	-1	17	8	-1	-1	33	-1	1	37	-1	27	-1	-1	47
-1	27	26	-1	29	32	41	24	28	-1	7	-1	-1	38	42	-1	-1	-1	-1	-1	-1	-1	34	15	9	-1	46	-1	-1	-1	-1	20	-1	-1	-1	-1	22	-1	18	-1	49	1	-1	-1	8	-1	6	-1	-1
45	-1	39	-1	4	-1	-1	33	-1	-1	37	26	41	9	-1	-1	-1	20	35	10	-1	17	-1	-1	12	22	-1	-1	38	15	-1	46	30	-1	44	-1	-1	-1	7	-1	47	-1	-1	-1	-1	-1	-1	-1	34
25	-1	-1	-1	-1	44	10	26	14	-1	-1	-1	30	3	45	-1	-1	15	-1	35	4	28	40	-1	8	-1	42	22	-1	17	-1	-1	-1	-1	33	-1	-1	1	20	36	-1	43	7	-1	-1	31	-1	29	-1
-1	6	-1	8	2	1	-1	43	-1	17	21	41	16	-1	-1	18	-1	-1	-1	-1	20	-1	31	32	33	47	26	-1	-1	-1	-1	-1	44	-1	-1	22	10	39	48	29	-1	27	-1	-1	40	14	-1	5	38
9	-1	19	-1	-1	12	-1	-1	-1	36	40	1	48	2	-1	-1	32	-1	-1	38	23	-1	-1	-1	-1	-1	-1	46	-1	20	21	-1	11	-1	18	-1	25	34	17	-1	42	28	37	41	-1	47	-1	-1	-1
-1	-1	-1	41	31	-1	18	8	19	11	20	-1	-1	-1	44	-1	47	42	-1	9	-1	30	-1	39	6	4	34	35	32	-1	-1	29	-1	-1	43	-1	-1	45	37	26	24	12	22	-1	16	-1	3	36	-1
-1	11	-1	-1	-1	46	-1	-1	-1	-1	38	23	-1	31	14	-1	33	43	3	-1	22	-1	44	2	25	41	1	-1	-1	5	36	-1	12	-1	-1	13	35	30	8	7	4	-1	20	26	21	-1	9	27	39
-1	-1	-1	-1	-1	30	43	-1	-1	-1	45	-1	44	-1	-1	46	-1	-1	-1	-1	-1	7	-1	-1	-1	38	-1	24	-1	-1	-1	-1	-1	27	-1	-1	23	-1	-1	-1	-1	-1	8	-1	13	-1	-1	6	12
-1	-1	20	26	47	-1	-1	-1	-1	39	9	-1	22	-1	-1	-1	-1	10	12	34	36	-1	-1	49	-1	14	-1	-1	-1	35	8	-1	25	-1	-1	-1	-1	6	5	40	-1	-1	-1	48	44	1	46	45	24
14	-1	41	15	-1	48	-1	46	-1	-1	-1	-1	5	-1	-1	-1	-1	38	32	36	-1	-1	-1	-1	22	-1	17	-1	-1	19	3	-1	6	31	-1	23	1	4	45	9	-1	10	26	-1	27	40	43	49	-1
-1	30	-1	-1	-1	23	-1	-1	-1	-1	42	-1	-1	-1	3	-1	-1	-1	-1	2	17	45	-1	28	-1	44	-1	13	29	11	26	40	-1	35	39	-1	7	-1	31	-1	32	-1	5	-1	-1	-1	-1	18	-1
43	26	9	-1	-1	-1	-1	15	35	23	33	-1	27	48	10	1	-1	-1	14	-1	31	18	2	29	41	-1	-1	-1	47	-1	42	-1	5	-1	-1	-1	16	-1	-1	-1	17	-1	-1	-1	-1	-1	-1	32	-1
5	-1	-1	28	6	-1	-1	-1	17	31	-1	-1	-1	-1	48	-1	16	-1	-1	-1	-1	-1	-1	27	19	26	49	37	4	21	-1	-1	18	-1	15	-1	41	35	-1	-1	30	14	-1	-1	-1	20	-1	-1	1
44	18	-1	46	10	-1	-1	14	2	37	-1	22	-1	20	35	-1	-1	4	-1	-1	42	40	48	43	36	1	32	31	-1	34	-1	-1	-1	-1	-1	19	-1	-1	29	-1	5	3	23	6	-1	13	-1	12	-1
49	-1	27	22	32	-1	-1	-1	41	-1	-1	-1	45	7	29	5	28	-1	-1	-1	-1	-1	42	16	34	35	-1	15	1	33	-1	17	-1	8	37	48	26	38	21	-1	-1	-1	-1	14	-1	-1	24	9	31
-1	-1	4	19	45	31	17	-1	26	18	-1	-1	-1	-1	12	22	-1	46	20	27	-1	23	-1	-1	-1	-1	5	-1	-1	-1	41	48	32	-1	14	15	47	2	-1	-1	-1	8	16	-1	-1	10	33	-1	-1
-1	-1	46	29	13	-1	8	-1	36	2	26	42	-1	-1	-1	24	-1	-1	-1	41	-1	-1	-1	-1	-1	-1	-1	-1	-1	-1	-1	-1	-1	-1	48	25	14	40	-1	-1	-1	-1	11	-1	47	-1	-1	19	-1
-1	-1	-1	38	12	39	44	18	8	-1	-1	-1	47	-1	5	-1	31	36	-1	42	-1	20	-1	7	32	25	30	-1	13	-1	-1	34	15	19	-1	-1	-1	-1	-1	-1	-1	-1	43	-1	24	-1	-1	4	37
-1	-1	-1	16	18	35	5	-1	3	-1	-1	32	21	13	-1	-1	-1	-1	-1	17	6	49	-1	31	-1	28	27	-1	-1	-1	1	-1	-1	2	8	-1	-1	12	-1	11	-1	-1	33	23	9	15	-1	26	29
37	-1	45	3	30	40	14	-1	-1	33	-1	31	20	11	43	-1	-1	-1	47	32	-1	15	-1	48	35	42	39	-1	17	-1	24	-1	-1	21	25	-1	2	-1	19	-1	22	34	-1	-1	-1	12	41	-1	36
-1	-1	-1	43	27	9	-1	45	37	46	12	-1	38	-1	11	19	21	-1	4	48	-1	13	-1	-1	5	17	8	47	40	18	-1	-1	41	-1	29	-1	44	15	33	-1	-1	-1	-1	16	31	22	49	-1	14
11	-1	25	33	-1	-1	26	-1	-1	49	-1	15	24	-1	-1	34	-1	-1	-1	16	40	41	6	14	-1	-1	45	10	-1	-1	27	-1	20	-1	23	-1	32	-1	-1	-1	31	46	-1	39	-1	-1	35	1	21
-1	-1	-1	21	-1	34	-1	-1	25	28	23	39	6	-1	13	27	-1	-1	46	-1	-1	29	1	33	-1	11	24	-1	-1	-1	7	32	-1	9	-1	49	-1	36	41	16	-1	48	-1	2	-1	-1	-1	-1	20
38	-1	-1	25	43	22	20	-1	-1	-1	46	33	-1	-1	-1	-1	1	-1	-1	-1	-1	-1	23	26	-1	-1	-1	-1	45	-1	-1	-1	49	36	-1	-1	-1	19	24	-1	-1	9	2	-1	32	-1	13	42	17
29	-1	3	-1	-1	-1	1	37	-1	48	30	-1	14	-1	-1	31	42	25	-1	-1	33	-1	-1	38	-1	-1	9	6	11	-1	10	-1	-1	-1	26	-1	-1	46	13	-1	27	-1	47	8	-1	45	20	-1	-1
-1	-1	48	10	-1	-1	-1	-1	-1	-1	6	21	39	27	-1	-1	11	17	36	-1	-1	42	43	45	28	-1	44	2	-1	-1	29	-1	8	-1	-1	16	31	-1	-1	-1	-1	-1	-1	24	-1	-1	30	-1	15
17	23	49	-1	41	-1	-1	-1	-1	22	-1	10	13	42	26	-1	-1	6	-1	-1	12	32	19	-1	47	16	20	-1	-1	39	-1	4	-1	-1	-1	40	18	48	11	30	36	-1	-1	7	1	-1	-1	21	-1
-1	-1	-1	30	26	-1	4	-1	-1	29	49	28	32	43	-1	16	10	19	18	-1	-1	-1	33	36	-1	-1	11	41	24	27	-1	-1	48	-1	31	-1	15	17	-1	37	-1	-1	-1	-1	-1	44	-1	-1	3
-1	16	28	14	-1	-1	-1	11	-1	-1	-1	44	-1	-1	-1	7	5	48	-1	-1	-1	-1	4	22	-1	-1	18	-1	30	-1	25	-1	1	-1	-1	-1	-1	-1	-1	12	-1	38	-1	49	36	19	31	41	33
-1	2	11	18	7	37	36	-1	-1	-1	15	25	12	-1	32	-1	38	-1	13	20	-1	-1	30	8	-1	24	-1	-1	34	-1	40	-1	22	-1	-1	-1	42	33	-1	-1	-1	49	-1	-1	-1	26	-1	48	6
39	3	16	-1	-1	21	46	-1	10	25	-1	4	-1	-1	-1	-1	-1	35	33	-1	13	47	18	42	29	-1	22	-1	48	8	31	-1	23	-1	-1	11	-1	5	32	-1	9	30	14	19	12	-1	-1	-1	-1
-1	22	-1	20	-1	4	-1	-1	-1	5	31	-1	-1	-1	-1	3	19	8	30	-1	-1	14	12	41	10	-1	15	-1	-1	2	9	42	-1	18	-1	-1	-1	-1	-1	48	28	39	44	43	-1	32	27	47	-1
-1	-1	12	2	33	-1	-1	48	42	20	41	-1	7	-1	-1	-1	4	32	-1	-1	10	-1	-1	-1	23	-1	43	17	-1	-1	-1	-1	45	22	-1	3	24	-1	27	-1	-1	15	38	13	-1	29	-1	-1	-1
7	10	-1	-1	-1	-1	34	-1	45	-1	-1	8	2	12	-1	23	-1	49	22	6	-1	-1	9	-1	-1	48	35	11	-1	30	-1	41	-1	-1	-1	47	19	-1	40	1	-1	-1	36	-1	33	21	37	46	-1
47	42	-1	48	-1	29	35	44	-1	24	22	-1	-1	-1	34	41	12	-1	-1	5	-1	-1	13	-1	-1	-1	38	-1	20	-1	19	-1	-1	26	-1	-1	-1	-1	46	17	18	-1	-1	-1	45	-1	23	-1	-1
27	1	43	9	-1	-1	-1	-1	40	19	32	49	-1	34	15	-1	-1	37	-1	-1	16	44	-1	-1	2	-1	-1	8	6	-1	47	-1	-1	-1	-1	12	13	-1	26	-1	-1	-1	48	11	28	7	39	-1	-1
23	-1	-1	44	-1	-1	32	-1	15	-1	-1	-1	-1	47	2	-1	36	39	1	-1	-1	6	28	20	27	19	-1	-1	10	-1	12	25	24	38	11	29	37	42	-1	4	16	41	-1	-1	-1	5	-1	-1	8
-1	46	-1	-1	-1	-1	48	-1	34	-1	-1	-1	42	15	-1	6	14	-1	-1	-1	24	-1	-1	40	49	36	4	26	8	13	-1	30	47	-1	-1	7	12	-1	3	18	25	-1	-1	-1	2	-1	-1	-1	-1
-1	33	30	-1	5	36	45	9	-1	8	39	2	-1	-1	-1	20	48	-1	-1	3	-1	31	-1	-1	7	21	29	38	18	12	44	24	35	-1	17	-1	-1	-1	-1	-1	-1	-1	-1	-1	-1	37	-1	-1	-1
12	14	37	-1	15	-1	24	1	4	-1	-1	-1	-1	33	-1	36	-1	-1	-1	-1	26	-1	-1	10	44	-1	28	5	-1	42	-1	3	-1	11	-1	8	-1	-1	38	2	48	17	-1	-1	-1	-1	-1	40	-1
22	47	7	32	-1	43	27	-1	48	-1	11	6	40	-1	49	-1	30	-1	-1	31	35	25	41	37	-1	18	2	39	-1	4	38	16	9	14	19	-1	28	-1	34	-1	-1	21	-1	-1	29	8	15	17	26
-1	9	40	42	-1	-1	-1	12	-1	27	-1	29	31	44	-1	8	37	2	-1	-1	-1	-1	-1	-1	-1	6	-1	-1	21	-1	20	15	-1	34	49	-1	-1	41	-1	-1	14	-1	-1	-1	4	33	-1	3	-1
-1	25	-1	17	-1	-1	11	-1	49	-1	43	-1	-1	-1	-1	-1	41	23	44	21	38	22	15	-1	42	-1	-1	12	-1	-1	-1	6	2	-1	-1	26	27	-1	-1	-1	40	31	32	9	-1	39	-1	30	-1
-1	28	-1	35	21	-1	31	-1	-1	16	13	3	-1	-1	-1	32	-1	34	-1	-1	43	33	24	-1	14	27	48	45	-1	-1	-1	-1	39	10	1	9	-1	-1	-1	42	11	-1	-1	36	-1	-1	25	7	-1
49 
31 41 37 9
49 6 3 29
18 45 26 23
25 11 17 43
48 31 7 40
10 9 8 19
33 26 26 7
34 1 2 2
9 30 3 49
6 49 12 32
7 47 40 5
49 43 3 41
34 25 9 9
31 20 42 5
5 39 1 17
30 34 16 7
6 31 35 34
48 3 30 9
5 33 47 7
34 37 31 34
23 38 37 8
18 47 17 32
43 46 26 24
39 24 2 20
17 5 16 8
49 29 28 18
22 8 7 9
4 30 29 16
35 43 32 28
4 16 17 46
42 3 32 4
2 28 31 1
40 33 6 26
5 19 16 17
22 13 9 3
37 3 20 33
12 5 9 34
14 32 28 37
39 8 13 31
28 14 24 25
14 41 29 36
7 10 46 19
34 41 32 20
10 36 49 49
22 49 46 36
48 15 38 24
33 42 20 12
13 19 3 45
44 45 38 32
